*SDPA file generated by SemidefiniteProgramming.m2
1 =mdim
1 =nblocks
3
-.707106781186547
0 1 1 1 -8
0 1 1 3 4
0 1 2 2 -2
0 1 2 3 3.14159265358979
0 1 3 3 -10.8696044010894
1 1 1 1 -.707106781186548
1 1 1 3 1.11022302462516e-16
